c description: Graph pigeonhole principle formula on fast_gnp_random_graph(10,25,0.9)
c generator: CNFgen (0.9.0)
c copyright: (C) 2012-2020 Massimo Lauria <massimo.lauria@uniroma1.it>
c url: https://massimolauria.net/cnfgen
c
p cnf 229 957
1 2 3 4 5 6 7 8 9 10 11 12 13 14 15 16 17 18 19 20 21 22 23 0
24 25 26 27 28 29 30 31 32 33 34 35 36 37 38 39 40 41 42 43 44 45 46 0
47 48 49 50 51 52 53 54 55 56 57 58 59 60 61 62 63 64 65 66 67 68 0
69 70 71 72 73 74 75 76 77 78 79 80 81 82 83 84 85 86 87 88 89 90 91 0
92 93 94 95 96 97 98 99 100 101 102 103 104 105 106 107 108 109 110 111 112 113 0
114 115 116 117 118 119 120 121 122 123 124 125 126 127 128 129 130 131 132 133 134 135 136 0
137 138 139 140 141 142 143 144 145 146 147 148 149 150 151 152 153 154 155 156 157 158 0
159 160 161 162 163 164 165 166 167 168 169 170 171 172 173 174 175 176 177 178 179 180 181 182 183 0
184 185 186 187 188 189 190 191 192 193 194 195 196 197 198 199 200 201 202 203 204 205 206 207 0
208 209 210 211 212 213 214 215 216 217 218 219 220 221 222 223 224 225 226 227 228 229 0
-1 -47 0
-1 -69 0
-1 -92 0
-1 -114 0
-1 -137 0
-1 -159 0
-1 -184 0
-1 -208 0
-47 -69 0
-47 -92 0
-47 -114 0
-47 -137 0
-47 -159 0
-47 -184 0
-47 -208 0
-69 -92 0
-69 -114 0
-69 -137 0
-69 -159 0
-69 -184 0
-69 -208 0
-92 -114 0
-92 -137 0
-92 -159 0
-92 -184 0
-92 -208 0
-114 -137 0
-114 -159 0
-114 -184 0
-114 -208 0
-137 -159 0
-137 -184 0
-137 -208 0
-159 -184 0
-159 -208 0
-184 -208 0
-2 -24 0
-2 -48 0
-2 -70 0
-2 -115 0
-2 -138 0
-2 -160 0
-2 -185 0
-2 -209 0
-24 -48 0
-24 -70 0
-24 -115 0
-24 -138 0
-24 -160 0
-24 -185 0
-24 -209 0
-48 -70 0
-48 -115 0
-48 -138 0
-48 -160 0
-48 -185 0
-48 -209 0
-70 -115 0
-70 -138 0
-70 -160 0
-70 -185 0
-70 -209 0
-115 -138 0
-115 -160 0
-115 -185 0
-115 -209 0
-138 -160 0
-138 -185 0
-138 -209 0
-160 -185 0
-160 -209 0
-185 -209 0
-3 -25 0
-3 -71 0
-3 -93 0
-3 -116 0
-3 -139 0
-3 -161 0
-3 -186 0
-3 -210 0
-25 -71 0
-25 -93 0
-25 -116 0
-25 -139 0
-25 -161 0
-25 -186 0
-25 -210 0
-71 -93 0
-71 -116 0
-71 -139 0
-71 -161 0
-71 -186 0
-71 -210 0
-93 -116 0
-93 -139 0
-93 -161 0
-93 -186 0
-93 -210 0
-116 -139 0
-116 -161 0
-116 -186 0
-116 -210 0
-139 -161 0
-139 -186 0
-139 -210 0
-161 -186 0
-161 -210 0
-186 -210 0
-4 -26 0
-4 -49 0
-4 -72 0
-4 -94 0
-4 -117 0
-4 -140 0
-4 -162 0
-4 -187 0
-4 -211 0
-26 -49 0
-26 -72 0
-26 -94 0
-26 -117 0
-26 -140 0
-26 -162 0
-26 -187 0
-26 -211 0
-49 -72 0
-49 -94 0
-49 -117 0
-49 -140 0
-49 -162 0
-49 -187 0
-49 -211 0
-72 -94 0
-72 -117 0
-72 -140 0
-72 -162 0
-72 -187 0
-72 -211 0
-94 -117 0
-94 -140 0
-94 -162 0
-94 -187 0
-94 -211 0
-117 -140 0
-117 -162 0
-117 -187 0
-117 -211 0
-140 -162 0
-140 -187 0
-140 -211 0
-162 -187 0
-162 -211 0
-187 -211 0
-5 -27 0
-5 -50 0
-5 -73 0
-5 -95 0
-5 -118 0
-5 -141 0
-5 -163 0
-5 -188 0
-5 -212 0
-27 -50 0
-27 -73 0
-27 -95 0
-27 -118 0
-27 -141 0
-27 -163 0
-27 -188 0
-27 -212 0
-50 -73 0
-50 -95 0
-50 -118 0
-50 -141 0
-50 -163 0
-50 -188 0
-50 -212 0
-73 -95 0
-73 -118 0
-73 -141 0
-73 -163 0
-73 -188 0
-73 -212 0
-95 -118 0
-95 -141 0
-95 -163 0
-95 -188 0
-95 -212 0
-118 -141 0
-118 -163 0
-118 -188 0
-118 -212 0
-141 -163 0
-141 -188 0
-141 -212 0
-163 -188 0
-163 -212 0
-188 -212 0
-6 -28 0
-6 -51 0
-6 -74 0
-6 -96 0
-6 -119 0
-6 -142 0
-6 -164 0
-6 -189 0
-6 -213 0
-28 -51 0
-28 -74 0
-28 -96 0
-28 -119 0
-28 -142 0
-28 -164 0
-28 -189 0
-28 -213 0
-51 -74 0
-51 -96 0
-51 -119 0
-51 -142 0
-51 -164 0
-51 -189 0
-51 -213 0
-74 -96 0
-74 -119 0
-74 -142 0
-74 -164 0
-74 -189 0
-74 -213 0
-96 -119 0
-96 -142 0
-96 -164 0
-96 -189 0
-96 -213 0
-119 -142 0
-119 -164 0
-119 -189 0
-119 -213 0
-142 -164 0
-142 -189 0
-142 -213 0
-164 -189 0
-164 -213 0
-189 -213 0
-7 -29 0
-7 -52 0
-7 -75 0
-7 -120 0
-7 -143 0
-7 -165 0
-7 -190 0
-7 -214 0
-29 -52 0
-29 -75 0
-29 -120 0
-29 -143 0
-29 -165 0
-29 -190 0
-29 -214 0
-52 -75 0
-52 -120 0
-52 -143 0
-52 -165 0
-52 -190 0
-52 -214 0
-75 -120 0
-75 -143 0
-75 -165 0
-75 -190 0
-75 -214 0
-120 -143 0
-120 -165 0
-120 -190 0
-120 -214 0
-143 -165 0
-143 -190 0
-143 -214 0
-165 -190 0
-165 -214 0
-190 -214 0
-8 -30 0
-8 -53 0
-8 -76 0
-8 -97 0
-8 -121 0
-8 -144 0
-8 -166 0
-8 -191 0
-8 -215 0
-30 -53 0
-30 -76 0
-30 -97 0
-30 -121 0
-30 -144 0
-30 -166 0
-30 -191 0
-30 -215 0
-53 -76 0
-53 -97 0
-53 -121 0
-53 -144 0
-53 -166 0
-53 -191 0
-53 -215 0
-76 -97 0
-76 -121 0
-76 -144 0
-76 -166 0
-76 -191 0
-76 -215 0
-97 -121 0
-97 -144 0
-97 -166 0
-97 -191 0
-97 -215 0
-121 -144 0
-121 -166 0
-121 -191 0
-121 -215 0
-144 -166 0
-144 -191 0
-144 -215 0
-166 -191 0
-166 -215 0
-191 -215 0
-9 -31 0
-9 -54 0
-9 -77 0
-9 -98 0
-9 -122 0
-9 -145 0
-9 -167 0
-9 -192 0
-9 -216 0
-31 -54 0
-31 -77 0
-31 -98 0
-31 -122 0
-31 -145 0
-31 -167 0
-31 -192 0
-31 -216 0
-54 -77 0
-54 -98 0
-54 -122 0
-54 -145 0
-54 -167 0
-54 -192 0
-54 -216 0
-77 -98 0
-77 -122 0
-77 -145 0
-77 -167 0
-77 -192 0
-77 -216 0
-98 -122 0
-98 -145 0
-98 -167 0
-98 -192 0
-98 -216 0
-122 -145 0
-122 -167 0
-122 -192 0
-122 -216 0
-145 -167 0
-145 -192 0
-145 -216 0
-167 -192 0
-167 -216 0
-192 -216 0
-10 -55 0
-10 -78 0
-10 -99 0
-10 -146 0
-10 -168 0
-10 -193 0
-55 -78 0
-55 -99 0
-55 -146 0
-55 -168 0
-55 -193 0
-78 -99 0
-78 -146 0
-78 -168 0
-78 -193 0
-99 -146 0
-99 -168 0
-99 -193 0
-146 -168 0
-146 -193 0
-168 -193 0
-11 -32 0
-11 -56 0
-11 -79 0
-11 -100 0
-11 -123 0
-11 -147 0
-11 -169 0
-11 -194 0
-11 -217 0
-32 -56 0
-32 -79 0
-32 -100 0
-32 -123 0
-32 -147 0
-32 -169 0
-32 -194 0
-32 -217 0
-56 -79 0
-56 -100 0
-56 -123 0
-56 -147 0
-56 -169 0
-56 -194 0
-56 -217 0
-79 -100 0
-79 -123 0
-79 -147 0
-79 -169 0
-79 -194 0
-79 -217 0
-100 -123 0
-100 -147 0
-100 -169 0
-100 -194 0
-100 -217 0
-123 -147 0
-123 -169 0
-123 -194 0
-123 -217 0
-147 -169 0
-147 -194 0
-147 -217 0
-169 -194 0
-169 -217 0
-194 -217 0
-12 -33 0
-12 -57 0
-12 -80 0
-12 -101 0
-12 -124 0
-12 -170 0
-12 -195 0
-12 -218 0
-33 -57 0
-33 -80 0
-33 -101 0
-33 -124 0
-33 -170 0
-33 -195 0
-33 -218 0
-57 -80 0
-57 -101 0
-57 -124 0
-57 -170 0
-57 -195 0
-57 -218 0
-80 -101 0
-80 -124 0
-80 -170 0
-80 -195 0
-80 -218 0
-101 -124 0
-101 -170 0
-101 -195 0
-101 -218 0
-124 -170 0
-124 -195 0
-124 -218 0
-170 -195 0
-170 -218 0
-195 -218 0
-13 -34 0
-13 -58 0
-13 -81 0
-13 -125 0
-13 -171 0
-13 -196 0
-13 -219 0
-34 -58 0
-34 -81 0
-34 -125 0
-34 -171 0
-34 -196 0
-34 -219 0
-58 -81 0
-58 -125 0
-58 -171 0
-58 -196 0
-58 -219 0
-81 -125 0
-81 -171 0
-81 -196 0
-81 -219 0
-125 -171 0
-125 -196 0
-125 -219 0
-171 -196 0
-171 -219 0
-196 -219 0
-14 -35 0
-14 -82 0
-14 -102 0
-14 -126 0
-14 -148 0
-14 -172 0
-14 -197 0
-14 -220 0
-35 -82 0
-35 -102 0
-35 -126 0
-35 -148 0
-35 -172 0
-35 -197 0
-35 -220 0
-82 -102 0
-82 -126 0
-82 -148 0
-82 -172 0
-82 -197 0
-82 -220 0
-102 -126 0
-102 -148 0
-102 -172 0
-102 -197 0
-102 -220 0
-126 -148 0
-126 -172 0
-126 -197 0
-126 -220 0
-148 -172 0
-148 -197 0
-148 -220 0
-172 -197 0
-172 -220 0
-197 -220 0
-15 -36 0
-15 -83 0
-15 -103 0
-15 -127 0
-15 -149 0
-15 -173 0
-15 -198 0
-15 -221 0
-36 -83 0
-36 -103 0
-36 -127 0
-36 -149 0
-36 -173 0
-36 -198 0
-36 -221 0
-83 -103 0
-83 -127 0
-83 -149 0
-83 -173 0
-83 -198 0
-83 -221 0
-103 -127 0
-103 -149 0
-103 -173 0
-103 -198 0
-103 -221 0
-127 -149 0
-127 -173 0
-127 -198 0
-127 -221 0
-149 -173 0
-149 -198 0
-149 -221 0
-173 -198 0
-173 -221 0
-198 -221 0
-16 -37 0
-16 -59 0
-16 -84 0
-16 -104 0
-16 -128 0
-16 -150 0
-16 -174 0
-16 -199 0
-16 -222 0
-37 -59 0
-37 -84 0
-37 -104 0
-37 -128 0
-37 -150 0
-37 -174 0
-37 -199 0
-37 -222 0
-59 -84 0
-59 -104 0
-59 -128 0
-59 -150 0
-59 -174 0
-59 -199 0
-59 -222 0
-84 -104 0
-84 -128 0
-84 -150 0
-84 -174 0
-84 -199 0
-84 -222 0
-104 -128 0
-104 -150 0
-104 -174 0
-104 -199 0
-104 -222 0
-128 -150 0
-128 -174 0
-128 -199 0
-128 -222 0
-150 -174 0
-150 -199 0
-150 -222 0
-174 -199 0
-174 -222 0
-199 -222 0
-17 -38 0
-17 -60 0
-17 -85 0
-17 -105 0
-17 -129 0
-17 -151 0
-17 -175 0
-17 -200 0
-17 -223 0
-38 -60 0
-38 -85 0
-38 -105 0
-38 -129 0
-38 -151 0
-38 -175 0
-38 -200 0
-38 -223 0
-60 -85 0
-60 -105 0
-60 -129 0
-60 -151 0
-60 -175 0
-60 -200 0
-60 -223 0
-85 -105 0
-85 -129 0
-85 -151 0
-85 -175 0
-85 -200 0
-85 -223 0
-105 -129 0
-105 -151 0
-105 -175 0
-105 -200 0
-105 -223 0
-129 -151 0
-129 -175 0
-129 -200 0
-129 -223 0
-151 -175 0
-151 -200 0
-151 -223 0
-175 -200 0
-175 -223 0
-200 -223 0
-18 -39 0
-18 -61 0
-18 -106 0
-18 -130 0
-18 -152 0
-18 -176 0
-18 -201 0
-18 -224 0
-39 -61 0
-39 -106 0
-39 -130 0
-39 -152 0
-39 -176 0
-39 -201 0
-39 -224 0
-61 -106 0
-61 -130 0
-61 -152 0
-61 -176 0
-61 -201 0
-61 -224 0
-106 -130 0
-106 -152 0
-106 -176 0
-106 -201 0
-106 -224 0
-130 -152 0
-130 -176 0
-130 -201 0
-130 -224 0
-152 -176 0
-152 -201 0
-152 -224 0
-176 -201 0
-176 -224 0
-201 -224 0
-40 -62 0
-40 -86 0
-40 -107 0
-40 -131 0
-40 -177 0
-40 -202 0
-40 -225 0
-62 -86 0
-62 -107 0
-62 -131 0
-62 -177 0
-62 -202 0
-62 -225 0
-86 -107 0
-86 -131 0
-86 -177 0
-86 -202 0
-86 -225 0
-107 -131 0
-107 -177 0
-107 -202 0
-107 -225 0
-131 -177 0
-131 -202 0
-131 -225 0
-177 -202 0
-177 -225 0
-202 -225 0
-19 -41 0
-19 -63 0
-19 -87 0
-19 -108 0
-19 -132 0
-19 -153 0
-19 -178 0
-19 -203 0
-19 -226 0
-41 -63 0
-41 -87 0
-41 -108 0
-41 -132 0
-41 -153 0
-41 -178 0
-41 -203 0
-41 -226 0
-63 -87 0
-63 -108 0
-63 -132 0
-63 -153 0
-63 -178 0
-63 -203 0
-63 -226 0
-87 -108 0
-87 -132 0
-87 -153 0
-87 -178 0
-87 -203 0
-87 -226 0
-108 -132 0
-108 -153 0
-108 -178 0
-108 -203 0
-108 -226 0
-132 -153 0
-132 -178 0
-132 -203 0
-132 -226 0
-153 -178 0
-153 -203 0
-153 -226 0
-178 -203 0
-178 -226 0
-203 -226 0
-20 -42 0
-20 -64 0
-20 -88 0
-20 -109 0
-20 -133 0
-20 -154 0
-20 -179 0
-20 -204 0
-42 -64 0
-42 -88 0
-42 -109 0
-42 -133 0
-42 -154 0
-42 -179 0
-42 -204 0
-64 -88 0
-64 -109 0
-64 -133 0
-64 -154 0
-64 -179 0
-64 -204 0
-88 -109 0
-88 -133 0
-88 -154 0
-88 -179 0
-88 -204 0
-109 -133 0
-109 -154 0
-109 -179 0
-109 -204 0
-133 -154 0
-133 -179 0
-133 -204 0
-154 -179 0
-154 -204 0
-179 -204 0
-21 -43 0
-21 -65 0
-21 -89 0
-21 -110 0
-21 -155 0
-21 -180 0
-21 -205 0
-21 -227 0
-43 -65 0
-43 -89 0
-43 -110 0
-43 -155 0
-43 -180 0
-43 -205 0
-43 -227 0
-65 -89 0
-65 -110 0
-65 -155 0
-65 -180 0
-65 -205 0
-65 -227 0
-89 -110 0
-89 -155 0
-89 -180 0
-89 -205 0
-89 -227 0
-110 -155 0
-110 -180 0
-110 -205 0
-110 -227 0
-155 -180 0
-155 -205 0
-155 -227 0
-180 -205 0
-180 -227 0
-205 -227 0
-22 -44 0
-22 -66 0
-22 -90 0
-22 -111 0
-22 -134 0
-22 -156 0
-22 -181 0
-22 -206 0
-22 -228 0
-44 -66 0
-44 -90 0
-44 -111 0
-44 -134 0
-44 -156 0
-44 -181 0
-44 -206 0
-44 -228 0
-66 -90 0
-66 -111 0
-66 -134 0
-66 -156 0
-66 -181 0
-66 -206 0
-66 -228 0
-90 -111 0
-90 -134 0
-90 -156 0
-90 -181 0
-90 -206 0
-90 -228 0
-111 -134 0
-111 -156 0
-111 -181 0
-111 -206 0
-111 -228 0
-134 -156 0
-134 -181 0
-134 -206 0
-134 -228 0
-156 -181 0
-156 -206 0
-156 -228 0
-181 -206 0
-181 -228 0
-206 -228 0
-45 -67 0
-45 -112 0
-45 -135 0
-45 -157 0
-45 -182 0
-67 -112 0
-67 -135 0
-67 -157 0
-67 -182 0
-112 -135 0
-112 -157 0
-112 -182 0
-135 -157 0
-135 -182 0
-157 -182 0
-23 -46 0
-23 -68 0
-23 -91 0
-23 -113 0
-23 -136 0
-23 -158 0
-23 -183 0
-23 -207 0
-23 -229 0
-46 -68 0
-46 -91 0
-46 -113 0
-46 -136 0
-46 -158 0
-46 -183 0
-46 -207 0
-46 -229 0
-68 -91 0
-68 -113 0
-68 -136 0
-68 -158 0
-68 -183 0
-68 -207 0
-68 -229 0
-91 -113 0
-91 -136 0
-91 -158 0
-91 -183 0
-91 -207 0
-91 -229 0
-113 -136 0
-113 -158 0
-113 -183 0
-113 -207 0
-113 -229 0
-136 -158 0
-136 -183 0
-136 -207 0
-136 -229 0
-158 -183 0
-158 -207 0
-158 -229 0
-183 -207 0
-183 -229 0
-207 -229 0